sat
(:added-eqs                       27817
 :arith-eq-adapter                809
 :arith-bound-propagations-lp     8666
 :arith-branch                    49
 :arith-conflicts                 4084
 :arith-cube-calls                14
 :arith-diseq                     10506
 :arith-fixed-eqs                 6618
 :arith-gcd-calls                 494
 :arith-gomory-cuts               14
 :arith-grobner-calls             583
 :arith-grobner-conflicts         140
 :arith-hnf-calls                 4
 :arith-horner-calls              147
 :arith-horner-conflicts          2
 :arith-horner-cross-nested-forms 17190
 :arith-lower                     18239
 :arith-make-feasible             14489
 :arith-max-columns               867
 :arith-max-rows                  459
 :arith-nla-add-bounds            93
 :arith-nla-lemmas                1972
 :arith-nla-propagate-bounds      1529
 :arith-nla-propagate-eq          20783
 :arith-nra-calls                 69
 :arith-offset-eqs                5006
 :arith-patches                   494
 :arith-patches-success           420
 :arith-upper                     18556
 :binary-propagations             45450
 :conflicts                       830
 :decisions                       70940
 :del-clause                      3378
 :final-checks                    1299
 :max-memory                      67.27
 :memory                          18.32
 :minimized-lits                  2998
 :mk-bool-var                     8232
 :mk-clause                       4443
 :mk-clause-binary                6200
 :nlsat-conflicts                 7043
 :nlsat-decisions                 187
 :nlsat-propagations              297463
 :nlsat-stages                    163141
 :num-allocs                      6427607425.00
 :num-checks                      1
 :propagations                    64247
 :restarts                        7
 :rlimit-count                    4448511
 :sls-arith-propagations          5
 :sls-arith-steps                 1489
 :sls-ddfw-flips                  5199.00
 :sls-ddfw-shifts                 735.00
 :sls-num-guided-search           4
 :solve-eqs-elim-vars             170
 :solve-eqs-steps                 1052
 :time                            2.43
 :total-time                      2.44)
